File : Instances/p58
Use 143 s

38238

0 0 1 1 1 1 1 1 0 1 1 0 1 0 0 0 1 0 0 1 1 0 0 0 1 1 0 1 1 0 
7 19 2 27 2 12 16 27 27 28 4 28 10 3 19 7 3 20 16 27 7 16 5 24 10 25 27 19 4 2 19 19 4 16 27 6 20 9 24 16 7 9 6 4 9 19 3 16 19 20 24 16 2 16 20 6 25 9 7 25 4 5 7 20 3 25 5 19 6 25 7 12 6 9 5 10 20 5 20 24 10 5 9 25 4 20 6 5 27 7 28 6 25 25 2 3 28 6 10 28 19 16 25 7 4 24 4 24 27 3 19 4 27 12 12 9 28 25 28 20 9 25 28 19 9 16 2 12 4 28 28 24 25 20 3 9 3 3 28 10 12 27 12 25 25 5 24 16 27 25 24 28 10 28 3 12 2 16 3 3 3 27 10 24 5 27 5 4 3 16 5 20 19 20 9 2 24 10 4 10 5 16 2 6 12 9 28 10 24 2 2 16 6 4 7 12 7 2 10 19 
